15
15
15
9
11
8
12
6
3
9
6
7
11
9
6
6
13
4
3
8
13
12
11
6
12
14
9
4
1
12
3
10
2
2
14
2
7
5
14
12
5
12
5
7
1
1
7
7
15
6
12
12
9
9
7
8
6
3
13
9
14
13
10
11
15
5
2
5
9
11
4
7
4
6
12
9
11
10
3
11
13
1
3
11
7
6
4
11
6
15
11
2
15
13
1
15
4
6
4
4
